33432 52149
38873 57552
54317 50622
11377 54829
19936 60462
53714 34786
57688 22236
2691 12003
22032 6959
54418 21225
16163 62968
29170 53007
53722 13407
53486 53448
7409 23435
24469 12174
22245 34306
6552 9484
42227 5861
39117 63838
57923 57525
14768 50408
40548 28686
